NAME : local_2
TYPE : ATSP
DIMENSION : 7
EDGE_WEIGHT_TYPE : EXPLICIT
EDGE_WEIGHT_FORMAT : FULL_MATRIX
EDGE_WEIGHT_SECTION
0 254 10000000 10000000 10000000 562 10000000 
0 0 10000000 10000000 10000000 808 10000000 
0 10000000 0 161 388 10000000 234 
0 10000000 161 0 536 10000000 148 
0 10000000 388 536 0 10000000 618 
0 808 10000000 10000000 10000000 0 10000000 
0 10000000 10000000 10000000 10000000 10000000 0 
EOF